NAME : R203.6053.tour
COMMENT : Cost = 0_6053
COMMENT : Found by LKH [Keld Helsgaun] Wed Sep 13 18:34:14 2017
TYPE : TOUR
DIMENSION : 55
TOUR_SECTION
1
51
4
34
10
36
35
30
25
5
26
13
29
54
27
22
40
24
42
23
41
52
28
2
31
21
33
12
50
20
11
32
55
3
43
16
44
15
39
45
17
18
6
38
14
53
8
49
48
37
47
46
9
19
7
-1
EOF
